c this is nonogram instance
p cnf 680
t00 t01 0
t10 0
t20 t21 0
t30 t31 0
t40 t41 0
t50 0
t60 0
t70 t71 0
t80 t81 0
t90 0
t100 t101 0
t110 t111 0
t120 t121 t122 t123 0
t130 t131 0
t140 t141 t142 t143 t144 0
t150 t151 0
t160 t161 0
t170 t171 0
t180 t181 0
t190 0
t200 0
t210 t211 t212 t213 t214 t215 0
t220 0
t230 t231 0
t240 t241 0
t250 t251 t252 t253 0
t260 0
t270 t271 t272 t273 t274 0
t280 t281 t282 t283 0
t290 t291 t292 t293 t294 t295 0
t300 t301 0
t310 0
t320 t321 t322 t323 t324 t325 0
t330 t331 t332 t333 t334 0
t340 t341 0
t350 0
t360 t361 t362 t363 0
t370 0
t380 t381 t382 t383 0
t390 t391 0
t400 t401 0
t410 t411 0
t420 t421 0
t430 t431 0
t440 0
t450 0
t460 t461 t462 t463 t464 0
t470 t471 0
t480 0
t490 t491 t492 t493 0
t500 0
t510 t511 t512 t513 0
t520 t521 0
t530 t531 t532 t533 t534 t535 0
t540 t541 t542 t543 t544 0
t550 0
t560 t561 t562 t563 t564 t565 0
t570 t571 t572 t573 t574 t575 0
t580 t581 t582 t583 t584 0
t590 0
t600 0
t610 t611 t612 t613 t614 t615 0
t620 t621 t622 t623 t624 t625 0
t630 t631 0
t640 t641 0
t650 t651 0
t660 t661 t662 t663 0
t670 t671 t672 t673 0
t680 t681 0
t00 -t00 0
t01 -t01 0
t10 -t10 0
t20 -t20 0
t21 -t21 0
t30 -t30 0
t31 -t31 0
t40 -t40 0
t41 -t41 0
t50 -t50 0
t60 -t60 0
t70 -t70 0
t71 -t71 0
t80 -t80 0
t81 -t81 0
t90 -t90 0
t100 -t100 0
t101 -t101 0
t110 -t110 0
t111 -t111 0
t120 -t120 0
t121 -t121 0
t122 -t122 0
t123 -t123 0
t130 -t130 0
t131 -t131 0
t140 -t140 0
t141 -t141 0
t142 -t142 0
t143 -t143 0
t144 -t144 0
t150 -t150 0
t151 -t151 0
t160 -t160 0
t161 -t161 0
t170 -t170 0
t171 -t171 0
t180 -t180 0
t181 -t181 0
t190 -t190 0
t200 -t200 0
t210 -t210 0
t211 -t211 0
t212 -t212 0
t213 -t213 0
t214 -t214 0
t215 -t215 0
t220 -t220 0
t230 -t230 0
t231 -t231 0
t240 -t240 0
t241 -t241 0
t250 -t250 0
t251 -t251 0
t252 -t252 0
t253 -t253 0
t260 -t260 0
t270 -t270 0
t271 -t271 0
t272 -t272 0
t273 -t273 0
t274 -t274 0
t280 -t280 0
t281 -t281 0
t282 -t282 0
t283 -t283 0
t290 -t290 0
t291 -t291 0
t292 -t292 0
t293 -t293 0
t294 -t294 0
t295 -t295 0
t300 -t300 0
t301 -t301 0
t310 -t310 0
t320 -t320 0
t321 -t321 0
t322 -t322 0
t323 -t323 0
t324 -t324 0
t325 -t325 0
t330 -t330 0
t331 -t331 0
t332 -t332 0
t333 -t333 0
t334 -t334 0
t340 -t340 0
t341 -t341 0
t350 -t350 0
t360 -t360 0
t361 -t361 0
t362 -t362 0
t363 -t363 0
t370 -t370 0
t380 -t380 0
t381 -t381 0
t382 -t382 0
t383 -t383 0
t390 -t390 0
t391 -t391 0
t400 -t400 0
t401 -t401 0
t410 -t410 0
t411 -t411 0
t420 -t420 0
t421 -t421 0
t430 -t430 0
t431 -t431 0
t440 -t440 0
t450 -t450 0
t460 -t460 0
t461 -t461 0
t462 -t462 0
t463 -t463 0
t464 -t464 0
t470 -t470 0
t471 -t471 0
t480 -t480 0
t490 -t490 0
t491 -t491 0
t492 -t492 0
t493 -t493 0
t500 -t500 0
t510 -t510 0
t511 -t511 0
t512 -t512 0
t513 -t513 0
t520 -t520 0
t521 -t521 0
t530 -t530 0
t531 -t531 0
t532 -t532 0
t533 -t533 0
t534 -t534 0
t535 -t535 0
t540 -t540 0
t541 -t541 0
t542 -t542 0
t543 -t543 0
t544 -t544 0
t550 -t550 0
t560 -t560 0
t561 -t561 0
t562 -t562 0
t563 -t563 0
t564 -t564 0
t565 -t565 0
t570 -t570 0
t571 -t571 0
t572 -t572 0
t573 -t573 0
t574 -t574 0
t575 -t575 0
t580 -t580 0
t581 -t581 0
t582 -t582 0
t583 -t583 0
t584 -t584 0
t590 -t590 0
t600 -t600 0
t610 -t610 0
t611 -t611 0
t612 -t612 0
t613 -t613 0
t614 -t614 0
t615 -t615 0
t620 -t620 0
t621 -t621 0
t622 -t622 0
t623 -t623 0
t624 -t624 0
t625 -t625 0
t630 -t630 0
t631 -t631 0
t640 -t640 0
t641 -t641 0
t650 -t650 0
t651 -t651 0
t660 -t660 0
t661 -t661 0
t662 -t662 0
t663 -t663 0
t670 -t670 0
t671 -t671 0
t672 -t672 0
t673 -t673 0
t680 -t680 0
t681 -t681 0